12° run output:
{
    "Function": "kroA750.tsp",
    "Problem dimension": [
        259,
        416,
        697,
        484,
        502,
        3,
        43,
        364,
        601,
        534,
        512,
        500,
        388,
        561,
        82,
        10,
        524,
        61,
        343,
        594,
        694,
        171,
        256,
        344,
        319,
        641,
        695,
        440,
        639,
        327,
        17,
        568,
        243,
        438,
        612,
        7,
        304,
        735,
        707,
        6,
        617,
        688,
        185,
        648,
        318,
        718,
        87,
        489,
        714,
        204,
        398,
        100,
        26,
        300,
        80,
        559,
        257,
        186,
        24,
        239,
        458,
        550,
        434,
        166,
        102,
        494,
        114,
        25,
        9,
        747,
        682,
        556,
        368,
        511,
        710,
        221,
        644,
        663,
        65,
        178,
        583,
        269,
        557,
        258,
        165,
        716,
        503,
        301,
        288,
        600,
        415,
        653,
        347,
        294,
        734,
        246,
        283,
        541,
        654,
        233,
        414,
        436,
        450,
        442,
        291,
        231,
        146,
        401,
        323,
        278,
        199,
        94,
        549,
        351,
        425,
        417,
        27,
        466,
        169,
        516,
        580,
        536,
        390,
        404,
        131,
        191,
        213,
        155,
        148,
        16,
        293,
        626,
        420,
        53,
        167,
        73,
        523,
        624,
        240,
        103,
        134,
        439,
        75,
        309,
        5,
        353,
        62,
        597,
        728,
        606,
        8,
        280,
        125,
        101,
        409,
        308,
        651,
        384,
        544,
        219,
        250,
        596,
        462,
        410,
        153,
        565,
        659,
        587,
        128,
        249,
        137,
        298,
        737,
        726,
        33,
        622,
        742,
        170,
        579,
        485,
        305,
        127,
        499,
        295,
        501,
        289,
        31,
        457,
        11,
        608,
        684,
        566,
        281,
        71,
        618,
        380,
        157,
        267,
        180,
        533,
        578,
        430,
        674,
        574,
        210,
        152,
        396,
        575,
        135,
        708,
        147,
        133,
        540,
        232,
        58,
        487,
        19,
        314,
        264,
        226,
        569,
        13,
        604,
        638,
        528,
        661,
        140,
        23,
        690,
        179,
        435,
        215,
        346,
        373,
        187,
        197,
        84,
        692,
        719,
        279,
        378,
        76,
        129,
        656,
        576,
        491,
        529,
        488,
        338,
        722,
        706,
        32,
        675,
        670,
        687,
        371,
        478,
        394,
        546,
        367,
        647,
        619,
        315,
        36,
        669,
        640,
        268,
        35,
        109,
        96,
        538,
        431,
        55,
        105,
        474,
        330,
        99,
        400,
        59,
        643,
        691,
        646,
        111,
        162,
        52,
        377,
        320,
        677,
        399,
        230,
        725,
        229,
        681,
        522,
        652,
        89,
        492,
        548,
        584,
        184,
        537,
        328,
        672,
        517,
        310,
        1,
        570,
        63,
        405,
        355,
        107,
        121,
        205,
        117,
        325,
        379,
        510,
        21,
        428,
        183,
        234,
        391,
        480,
        445,
        490,
        143,
        407,
        260,
        613,
        582,
        126,
        363,
        42,
        736,
        306,
        98,
        433,
        508,
        242,
        92,
        515,
        721,
        345,
        369,
        207,
        83,
        273,
        324,
        467,
        49,
        535,
        567,
        247,
        381,
        471,
        585,
        4,
        337,
        429,
        51,
        356,
        88,
        460,
        220,
        41,
        620,
        322,
        432,
        712,
        740,
        198,
        452,
        156,
        616,
        316,
        408,
        29,
        290,
        702,
        245,
        592,
        472,
        703,
        39,
        473,
        132,
        313,
        212,
        657,
        504,
        174,
        164,
        18,
        392,
        261,
        571,
        554,
        77,
        738,
        627,
        468,
        173,
        530,
        513,
        360,
        352,
        112,
        693,
        598,
        630,
        454,
        142,
        709,
        277,
        496,
        177,
        299,
        85,
        188,
        655,
        67,
        336,
        276,
        676,
        637,
        673,
        225,
        729,
        311,
        715,
        441,
        717,
        731,
        72,
        633,
        138,
        358,
        748,
        629,
        211,
        683,
        284,
        483,
        486,
        593,
        332,
        317,
        701,
        362,
        218,
        403,
        252,
        120,
        366,
        376,
        577,
        263,
        645,
        451,
        47,
        275,
        189,
        91,
        446,
        348,
        685,
        14,
        664,
        244,
        621,
        545,
        389,
        15,
        560,
        206,
        266,
        333,
        448,
        201,
        113,
        297,
        507,
        118,
        202,
        163,
        455,
        160,
        649,
        658,
        270,
        44,
        130,
        34,
        370,
        161,
        209,
        498,
        375,
        412,
        307,
        469,
        696,
        699,
        477,
        636,
        272,
        78,
        342,
        422,
        698,
        423,
        700,
        81,
        599,
        69,
        168,
        37,
        195,
        238,
        262,
        326,
        255,
        525,
        2,
        149,
        595,
        30,
        739,
        532,
        411,
        551,
        665,
        357,
        108,
        74,
        421,
        235,
        97,
        418,
        40,
        334,
        476,
        159,
        359,
        287,
        531,
        106,
        609,
        296,
        634,
        385,
        461,
        611,
        217,
        214,
        463,
        443,
        745,
        444,
        241,
        54,
        397,
        70,
        349,
        465,
        158,
        274,
        46,
        505,
        79,
        479,
        365,
        190,
        122,
        588,
        720,
        271,
        341,
        713,
        237,
        493,
        558,
        453,
        386,
        374,
        519,
        12,
        705,
        660,
        514,
        119,
        605,
        208,
        203,
        610,
        406,
        527,
        437,
        303,
        335,
        48,
        0,
        57,
        603,
        104,
        686,
        144,
        150,
        387,
        22,
        562,
        749,
        110,
        253,
        194,
        680,
        251,
        518,
        331,
        282,
        56,
        689,
        200,
        711,
        746,
        586,
        506,
        632,
        475,
        124,
        727,
        668,
        321,
        590,
        236,
        402,
        520,
        667,
        456,
        447,
        141,
        723,
        64,
        350,
        223,
        339,
        678,
        732,
        542,
        563,
        625,
        635,
        329,
        123,
        482,
        679,
        395,
        45,
        555,
        628,
        733,
        224,
        671,
        526,
        553,
        38,
        424,
        292,
        650,
        151,
        145,
        743,
        459,
        704,
        581,
        28,
        495,
        115,
        589,
        50,
        286,
        426,
        521,
        509,
        730,
        227,
        20,
        614,
        419,
        60,
        192,
        470,
        607,
        631,
        265,
        552,
        539,
        724,
        642,
        139,
        66,
        393,
        427,
        176,
        413,
        383,
        181,
        744,
        228,
        741,
        154,
        193,
        90,
        175,
        93,
        248,
        361,
        216,
        497,
        302,
        449,
        547,
        573,
        602,
        666,
        340,
        86,
        464,
        591,
        68,
        615,
        196,
        95,
        222,
        285,
        564,
        481,
        312,
        572,
        116,
        662,
        254,
        354,
        172,
        372,
        182,
        136,
        543,
        623,
        382
    ],
    "Global Optimum": 0,
    "Algorithm": "Genetic algorithm",
    "Parameters": {
        "population": 30,
        "offspring": 30,
        "mutation probability": 0.0013333333333333333,
        "crossover probability": 0.9
    },
    "Fitness": 960480,
    "Solution": [
        259,
        416,
        697,
        484,
        502,
        3,
        43,
        364,
        601,
        534,
        512,
        500,
        388,
        561,
        82,
        10,
        524,
        61,
        343,
        594,
        694,
        171,
        256,
        344,
        319,
        641,
        695,
        440,
        639,
        327,
        17,
        568,
        243,
        438,
        612,
        7,
        304,
        735,
        707,
        6,
        617,
        688,
        185,
        648,
        318,
        718,
        87,
        489,
        714,
        204,
        398,
        100,
        26,
        300,
        80,
        559,
        257,
        186,
        24,
        239,
        458,
        550,
        434,
        166,
        102,
        494,
        114,
        25,
        9,
        747,
        682,
        556,
        368,
        511,
        710,
        221,
        644,
        663,
        65,
        178,
        583,
        269,
        557,
        258,
        165,
        716,
        503,
        301,
        288,
        600,
        415,
        653,
        347,
        294,
        734,
        246,
        283,
        541,
        654,
        233,
        414,
        436,
        450,
        442,
        291,
        231,
        146,
        401,
        323,
        278,
        199,
        94,
        549,
        351,
        425,
        417,
        27,
        466,
        169,
        516,
        580,
        536,
        390,
        404,
        131,
        191,
        213,
        155,
        148,
        16,
        293,
        626,
        420,
        53,
        167,
        73,
        523,
        624,
        240,
        103,
        134,
        439,
        75,
        309,
        5,
        353,
        62,
        597,
        728,
        606,
        8,
        280,
        125,
        101,
        409,
        308,
        651,
        384,
        544,
        219,
        250,
        596,
        462,
        410,
        153,
        565,
        659,
        587,
        128,
        249,
        137,
        298,
        737,
        726,
        33,
        622,
        742,
        170,
        579,
        485,
        305,
        127,
        499,
        295,
        501,
        289,
        31,
        457,
        11,
        608,
        684,
        566,
        281,
        71,
        618,
        380,
        157,
        267,
        180,
        533,
        578,
        430,
        674,
        574,
        210,
        152,
        396,
        575,
        135,
        708,
        147,
        133,
        540,
        232,
        58,
        487,
        19,
        314,
        264,
        226,
        569,
        13,
        604,
        638,
        528,
        661,
        140,
        23,
        690,
        179,
        435,
        215,
        346,
        373,
        187,
        197,
        84,
        692,
        719,
        279,
        378,
        76,
        129,
        656,
        576,
        491,
        529,
        488,
        338,
        722,
        706,
        32,
        675,
        670,
        687,
        371,
        478,
        394,
        546,
        367,
        647,
        619,
        315,
        36,
        669,
        640,
        268,
        35,
        109,
        96,
        538,
        431,
        55,
        105,
        474,
        330,
        99,
        400,
        59,
        643,
        691,
        646,
        111,
        162,
        52,
        377,
        320,
        677,
        399,
        230,
        725,
        229,
        681,
        522,
        652,
        89,
        492,
        548,
        584,
        184,
        537,
        328,
        672,
        517,
        310,
        1,
        570,
        63,
        405,
        355,
        107,
        121,
        205,
        117,
        325,
        379,
        510,
        21,
        428,
        183,
        234,
        391,
        480,
        445,
        490,
        143,
        407,
        260,
        613,
        582,
        126,
        363,
        42,
        736,
        306,
        98,
        433,
        508,
        242,
        92,
        515,
        721,
        345,
        369,
        207,
        83,
        273,
        324,
        467,
        49,
        535,
        567,
        247,
        381,
        471,
        585,
        4,
        337,
        429,
        51,
        356,
        88,
        460,
        220,
        41,
        620,
        322,
        432,
        712,
        740,
        198,
        452,
        156,
        616,
        316,
        408,
        29,
        290,
        702,
        245,
        592,
        472,
        703,
        39,
        473,
        132,
        313,
        212,
        657,
        504,
        174,
        164,
        18,
        392,
        261,
        571,
        554,
        77,
        738,
        627,
        468,
        173,
        530,
        513,
        360,
        352,
        112,
        693,
        598,
        630,
        454,
        142,
        709,
        277,
        496,
        177,
        299,
        85,
        188,
        655,
        67,
        336,
        276,
        676,
        637,
        673,
        225,
        729,
        311,
        715,
        441,
        717,
        731,
        72,
        633,
        138,
        358,
        748,
        629,
        211,
        683,
        284,
        483,
        486,
        593,
        332,
        317,
        701,
        362,
        218,
        403,
        252,
        120,
        366,
        376,
        577,
        263,
        645,
        451,
        47,
        275,
        189,
        91,
        446,
        348,
        685,
        14,
        664,
        244,
        621,
        545,
        389,
        15,
        560,
        206,
        266,
        333,
        448,
        201,
        113,
        297,
        507,
        118,
        202,
        163,
        455,
        160,
        649,
        658,
        270,
        44,
        130,
        34,
        370,
        161,
        209,
        498,
        375,
        412,
        307,
        469,
        696,
        699,
        477,
        636,
        272,
        78,
        342,
        422,
        698,
        423,
        700,
        81,
        599,
        69,
        168,
        37,
        195,
        238,
        262,
        326,
        255,
        525,
        2,
        149,
        595,
        30,
        739,
        532,
        411,
        551,
        665,
        357,
        108,
        74,
        421,
        235,
        97,
        418,
        40,
        334,
        476,
        159,
        359,
        287,
        531,
        106,
        609,
        296,
        634,
        385,
        461,
        611,
        217,
        214,
        463,
        443,
        745,
        444,
        241,
        54,
        397,
        70,
        349,
        465,
        158,
        274,
        46,
        505,
        79,
        479,
        365,
        190,
        122,
        588,
        720,
        271,
        341,
        713,
        237,
        493,
        558,
        453,
        386,
        374,
        519,
        12,
        705,
        660,
        514,
        119,
        605,
        208,
        203,
        610,
        406,
        527,
        437,
        303,
        335,
        48,
        0,
        57,
        603,
        104,
        686,
        144,
        150,
        387,
        22,
        562,
        749,
        110,
        253,
        194,
        680,
        251,
        518,
        331,
        282,
        56,
        689,
        200,
        711,
        746,
        586,
        506,
        632,
        475,
        124,
        727,
        668,
        321,
        590,
        236,
        402,
        520,
        667,
        456,
        447,
        141,
        723,
        64,
        350,
        223,
        339,
        678,
        732,
        542,
        563,
        625,
        635,
        329,
        123,
        482,
        679,
        395,
        45,
        555,
        628,
        733,
        224,
        671,
        526,
        553,
        38,
        424,
        292,
        650,
        151,
        145,
        743,
        459,
        704,
        581,
        28,
        495,
        115,
        589,
        50,
        286,
        426,
        521,
        509,
        730,
        227,
        20,
        614,
        419,
        60,
        192,
        470,
        607,
        631,
        265,
        552,
        539,
        724,
        642,
        139,
        66,
        393,
        427,
        176,
        413,
        383,
        181,
        744,
        228,
        741,
        154,
        193,
        90,
        175,
        93,
        248,
        361,
        216,
        497,
        302,
        449,
        547,
        573,
        602,
        666,
        340,
        86,
        464,
        591,
        68,
        615,
        196,
        95,
        222,
        285,
        564,
        481,
        312,
        572,
        116,
        662,
        254,
        354,
        172,
        372,
        182,
        136,
        543,
        623,
        382
    ],
    "Nb of functions evaluations": 200010,
    "Computational time in seconds": 1740.9866993427277,
    "Stopping criterion in evaluations": 200000
}